(set-logic ALL)
(declare-const BAV1 Bool)
(declare-const BAV2 Bool)
(declare-const BAV3 Bool)
(declare-const GEN2 Int)
(declare-const GEN1 Int)
(set-option :sort-inference true)
(set-option :uf-ho true)
(declare-fun a ( Int ) Int)
(declare-fun b ( Int ) Int)
(assert (and (distinct GEN1 (b GEN2)) (distinct a b)))
(assert (= BAV1 (and (distinct GEN1 (b GEN2)) (distinct a b))))
(assert (= BAV2 (distinct GEN1 (b GEN2))))
(assert (= BAV3 (distinct a b)))
(check-sat)
(get-model)